param k := 3; 
param n := 16; 
param s := 2;

set E := (1,4) (1,5) (1,13) (1,14) (1,15) (1,16) (2,3) (2,8) (2,13) (2,14) (2,15) (2,16) (3,4) (3,7) (3,13) (3,14) (3,15) (3,16) (4,6) (4,13) (4,14) (4,15) (4,16) (5,6) (5,9) (5,13) (5,14) (5,15) (5,16) (6,7) (6,10) (6,13) (6,14) (6,15) (6,16) (7,8) (7,11) (7,13) (7,14) (7,15) (7,16) (8,12) (8,13) (8,14) (8,15) (8,16) (9,10) (9,13) (9,14) (9,15) (9,16) (10,11) (10,13) (10,14) (10,15) (10,16) (11,12) (11,13) (11,14) (11,15) (11,16) (12,13) (12,14) (12,15) (12,16) (13,14) (13,15) (13,16) (14,15) (14,16) (15,16); 
